n_res = 5;
n_events = 52;
n_prec = 182;
source = 1;
sink = 52;
min_lvl = [-9, -4, -5, -5, -8];
max_lvl = [1, 11, 5, 5, 0];
rr = [| 0, -1, 1, 0, -1, -2, -1, 1, 1, -2, 0, -2, 2, 0, -1, -1, -2, 0, 0, -2, 0, 2, 1, 0, 0, 2, 2, 0, 0, 0, -2, 1, -2, 2, 0, 0, 0, 2, 0, 0, -2, 2, 0, 0, -1, 2, -1, 0, -2, 0, 0, 0
      | 0, -1, 0, 0, -1, 0, 0, 0, 1, 0, 1, -2, -1, 0, 1, 2, 1, 1, 0, 0, 2, -1, -1, 1, -2, 0, 0, 1, 0, 0, 1, 0, 0, 0, 0, 1, 2, 1, -1, 1, 0, 0, 0, 0, -2, 0, 1, -1, 2, 2, -1, 0
      | 0, -1, 2, 0, -1, 0, 0, -2, 2, 1, 0, 0, -1, -2, 2, 2, 2, -2, 0, 0, 2, -1, 0, 1, 0, 0, 1, 0, 0, 2, -2, -1, 0, 0, 2, 0, 0, 0, -1, 1, 2, -2, 2, 0, -1, 1, -2, -2, 0, 1, 0, 0
      | 0, 0, 1, 0, 0, 0, -1, 0, -1, 2, 0, 1, 0, 0, -1, -1, 1, 0, 0, 0, 2, 1, 0, -2, 1, 1, 1, -1, -1, -2, -2, -2, 1, -2, 0, -2, 0, -1, -1, 0, 0, 1, 1, 0, -2, -1, 2, 2, 0, -1, 1, 0
      | 0, -1, 2, 2, -2, 2, -1, -2, 2, -2, 0, -2, 1, -1, -1, 0, 0, 0, 1, -1, 1, -1, 2, 0, 0, 0, -2, 2, 0, 0, 0, -2, -1, 0, 0, 0, 0, -2, 0, -2, 0, 0, 0, 0, 2, 0, 2, -2, 0, 0, 0, 0 |];
prec = [| 1, 0, 3
        | 1, 0, 4
        | 1, 0, 2
        | 1, 0, 12
        | 2, -4, 23
        | 2, -6, 12
        | 2, 7, 40
        | 2, 13, 27
        | 2, 1, 50
        | 3, -4, 38
        | 3, 8, 5
        | 4, 12, 36
        | 4, -5, 22
        | 4, 11, 46
        | 4, -2, 11
        | 5, 10, 10
        | 5, 24, 8
        | 5, 8, 50
        | 5, 0, 20
        | 5, -4, 28
        | 5, 14, 49
        | 5, 24, 44
        | 6, 3, 9
        | 6, -12, 31
        | 6, -22, 26
        | 6, 7, 28
        | 7, 6, 45
        | 7, 1, 20
        | 7, 10, 38
        | 7, 5, 48
        | 7, -57, 13
        | 7, -84, 39
        | 7, 12, 30
        | 7, 9, 46
        | 8, 10, 43
        | 8, 13, 18
        | 8, 0, 17
        | 8, 14, 24
        | 9, 0, 38
        | 9, -44, 23
        | 9, 5, 42
        | 9, 4, 16
        | 10, 0, 49
        | 10, 0, 34
        | 10, 3, 31
        | 10, 1, 19
        | 11, 8, 30
        | 11, 13, 34
        | 11, 15, 44
        | 11, 6, 28
        | 11, 1, 40
        | 11, 15, 20
        | 11, 0, 43
        | 12, -5, 44
        | 12, 16, 18
        | 12, 9, 51
        | 13, 25, 7
        | 13, 1, 17
        | 14, 3, 27
        | 14, 3, 46
        | 14, 0, 6
        | 15, 13, 44
        | 15, 4, 10
        | 15, 13, 41
        | 15, -16, 22
        | 16, 0, 48
        | 16, 3, 39
        | 16, 0, 44
        | 16, -40, 29
        | 17, -3, 48
        | 17, 2, 20
        | 17, 16, 46
        | 18, 22, 16
        | 18, -1, 26
        | 18, 7, 21
        | 18, -7, 30
        | 18, 17, 51
        | 18, 16, 48
        | 18, 9, 40
        | 18, -9, 32
        | 19, 16, 43
        | 20, 19, 46
        | 20, -18, 30
        | 21, 0, 29
        | 21, 2, 19
        | 21, 6, 32
        | 22, 6, 15
        | 23, 1, 21
        | 23, -6, 45
        | 23, 26, 44
        | 24, 8, 49
        | 24, 11, 50
        | 24, 18, 21
        | 24, 9, 6
        | 24, 16, 47
        | 24, 17, 14
        | 25, 27, 27
        | 25, 7, 37
        | 25, -7, 41
        | 26, 0, 38
        | 26, 7, 9
        | 26, 0, 47
        | 26, 6, 30
        | 26, 4, 22
        | 26, 6, 21
        | 27, -34, 14
        | 27, 16, 29
        | 27, -2, 6
        | 27, -91, 4
        | 28, 0, 19
        | 28, 6, 7
        | 28, 5, 20
        | 28, 6, 16
        | 28, -37, 29
        | 29, -12, 23
        | 29, 4, 34
        | 29, 17, 11
        | 29, 1, 9
        | 29, 0, 40
        | 30, 2, 20
        | 30, 0, 46
        | 31, 4, 6
        | 31, 6, 16
        | 31, 2, 47
        | 31, 0, 41
        | 31, 5, 30
        | 31, -21, 22
        | 31, 5, 21
        | 32, 2, 44
        | 32, 2, 34
        | 32, 1, 45
        | 33, 9, 50
        | 33, 9, 49
        | 33, -1, 25
        | 34, 3, 46
        | 34, 0, 41
        | 34, 0, 13
        | 34, 0, 20
        | 34, 1, 7
        | 34, 2, 45
        | 35, 1, 45
        | 35, 0, 30
        | 35, -3, 20
        | 36, -5, 9
        | 36, 27, 33
        | 36, 8, 37
        | 37, 17, 48
        | 37, -6, 43
        | 37, -6, 32
        | 37, 16, 23
        | 37, 8, 38
        | 38, 21, 46
        | 38, 1, 30
        | 38, 13, 35
        | 38, 27, 45
        | 39, 0, 41
        | 39, 5, 7
        | 39, 4, 30
        | 39, 2, 17
        | 40, 28, 13
        | 40, -1, 38
        | 40, -9, 19
        | 41, 22, 30
        | 42, 2, 40
        | 42, 3, 45
        | 42, 0, 20
        | 42, 0, 44
        | 43, 7, 30
        | 43, 9, 32
        | 44, 3, 7
        | 44, 2, 39
        | 44, 3, 48
        | 44, 3, 17
        | 45, 0, 41
        | 45, -108, 19
        | 46, 9, 52
        | 46, -30, 17
        | 47, 7, 52
        | 48, 5, 52
        | 49, 10, 52
        | 50, 2, 52
        | 51, 6, 52 |];
